100 10
178 549
264 320
500 653
805 791
350 534
571 634
609 339
990 512
531 432
711 724
430 685
508 571
177 950
252 335
102 629
877 492
478 568
407 650
410 558
462 468
329 413
693 956
574 565
664 491
532 200
460 307
737 507
765 458
729 315
541 808
349 286
607 532
882 796
413 893
380 636
808 431
195 482
521 742
534 258
454 456
683 677
717 809
427 651
304 508
199 881
453 75
47 770
605 375
407 697
165 652
652 116
382 897
687 795
558 285
607 357
469 590
551 438
564 556
149 675
655 316
510 849
364 919
722 661
422 666
581 530
426 567
636 403
301 642
426 522
138 834
855 506
446 463
708 865
787 800
398 894
546 713
837 637
475 412
630 688
275 633
546 671
782 657
827 569
621 748
333 332
740 639
434 893
328 400
689 487
426 756
876 526
495 868
581 896
59 583
560 679
837 272
611 763
883 500
369 793
412 644
